clear
boundary    p p p
units       metal
newton      on

read_data   sfe/image_$i.data

mass        1 63.546

pair_style  meam/spline
pair_coeff  * * /tmp/test.meam.spline Cu

thermo_style custom step pe
thermo_modify format line "%d %.15g"

#dump 2 all custom 1 ${dumpfile} id fx fy fz
#dump 2 all custom 1 dump.forces id fx fy fz
#dump_modify 2 format line "%d %.16f %.16f %.16f"

neigh_modify once no every 1 delay 0 check yes
neighbor 1.0 nsq

#min_style   cg
minimize    1e-8 1e-8 1000 1000
run 0
